4 
5  38 
6  00 25 45 
7  04 18 33 47 
8  03 18 33 48 
9  03 18 33 47 
10  02 17 32 47 
11  02 17 32 47 
12  02 17 32 47 
13  02 17 32 48 
14  03 18 33 48 
15  03 18 34 49 
16  04 19 34 49 
17  04 19 34 49 
18  04 19 34 49 
19  04 19 34 49 
20  04 19 34 49 
21  05 19 34 49 
22  04 19 34 51 
23  04 19 43 
0 
